101
200
140	5
139	10
138	10
137	9
136	8
135	10
134	8
133	6
132	6
131	7
130	7
129	7
128	9
127	9
126	11
125	6
124	5
123	11
122	7
121	7
120	9
119	3
118	7
117	5
116	9
115	7
114	10
113	7
112	13
111	7
110	6
109	9
108	10
107	10
106	6
105	3
104	8
103	8
102	7
101	11
100	6
99	9
98	9
97	11
96	10
95	9
94	8
93	4
92	10
91	10
90	6
89	7
88	6
87	6
86	8
85	3
84	4
83	6
82	10
81	13
80	7
79	7
78	7
77	5
76	8
75	9
74	12
73	8
72	5
71	6
70	5
69	7
68	7
67	3
66	4
65	6
64	3
63	6
62	6
61	10
60	11
59	1
58	5
57	13
56	2
55	8
54	2
53	9
52	6
51	6
50	6
49	9
48	9
47	12
46	10
45	5
44	10
43	9
42	7
41	4
40	7
